%%%mzn-stat: initTime=0.007586124
%%%mzn-stat: objective=909
%%%mzn-stat: nodes=20917
%%%mzn-stat: restarts=0
%%%mzn-stat: peakDepth=308
%%%mzn-stat: solveTime=1.2209011
%%%mzn-stat: variables=653
%%%mzn-stat: propagators=440
%%%mzn-stat: failures=5440
%%%mzn-stat: propagations=196167
%%%mzn-stat: nogoods=5440
%%%mzn-stat: AverageConflictSize=14.060294117647059
%%%mzn-stat: NumUnitNogoodsLearned=908
%%%mzn-stat: AverageLearnedNogoodLength=14.230882352941176
%%%mzn-stat: AverageBacktrackAmount=0
%%%mzn-stat: AverageLbd=9.2125
%%%mzn-stat-end
maxleg = 909;
succ = array1d(1..50,[36, 15, 11, 12, 21, 22, 31, 10, 47, 35, 19, 41, 27, 2, 40, 18, 9, 33, 42, 49, 50, 25, 4, 34, 38, 1, 44, 17, 43, 45, 13, 23, 20, 39, 29, 48, 28, 32, 26, 5, 16, 30, 37, 6, 24, 14, 3, 7, 46, 8]);
% time elapsed: 2.70 s
----------
==========
% time elapsed: 2.70 s
%%%mzn-stat: initTime=0.007586124
%%%mzn-stat: objective=909
%%%mzn-stat: nodes=20917
%%%mzn-stat: restarts=0
%%%mzn-stat: peakDepth=308
%%%mzn-stat: solveTime=1.220906044
%%%mzn-stat: variables=653
%%%mzn-stat: propagators=440
%%%mzn-stat: failures=5440
%%%mzn-stat: propagations=196167
%%%mzn-stat: nogoods=5440
%%%mzn-stat: AverageConflictSize=14.060294117647059
%%%mzn-stat: NumUnitNogoodsLearned=908
%%%mzn-stat: AverageLearnedNogoodLength=14.230882352941176
%%%mzn-stat: AverageBacktrackAmount=0
%%%mzn-stat: AverageLbd=9.2125
%%%mzn-stat-end
